500
    1    37    37
    2    71    71
    3    53    53
    4    76    76
    5    75    75
    6    77    77
    7    72    72
    8     5     5
    9    65    65
   10    91    91
   11    19    19
   12    82    82
   13    54    54
   14    71    71
   15    57    57
   16    33    33
   17    26    26
   18    60    60
   19    67    67
   20    32    32
   21    57    57
   22    48    48
   23    68    68
   24    36    36
   25    53    53
   26    80    80
   27    17    17
   28    59    59
   29    94    94
   30    68    68
   31    14    14
   32    49    49
   33    58    58
   34    79    79
   35    93    93
   36    47    47
   37    38    38
   38    96    96
   39    15    15
   40    51    51
   41    70    70
   42    43    43
   43    45    45
   44    32    32
   45     5     5
   46    89    89
   47    32    32
   48    73    73
   49    38    38
   50    90    90
   51    21    21
   52    80    80
   53    35    35
   54    61    61
   55    65    65
   56    37    37
   57    83    83
   58    23    23
   59    16    16
   60    62    62
   61     3     3
   62    70    70
   63    29    29
   64    45    45
   65    77    77
   66    17    17
   67    98    98
   68   100   100
   69     1     1
   70     1     1
   71    10    10
   72    42    42
   73    29    29
   74    86    86
   75    14    14
   76    48    48
   77    21    21
   78     8     8
   79    56    56
   80    41    41
   81    76    76
   82    73    73
   83    95    95
   84    15    15
   85    31    31
   86    43    43
   87    43    43
   88    44    44
   89    60    60
   90     4     4
   91    56    56
   92    48    48
   93    79    79
   94    86    86
   95    55    55
   96    30    30
   97    88    88
   98    66    66
   99    33    33
  100    67    67
  101    72    72
  102    64    64
  103    13    13
  104    92    92
  105    50    50
  106    28    28
  107    61    61
  108    66    66
  109    54    54
  110    37    37
  111    37    37
  112    23    23
  113    34    34
  114    48    48
  115     4     4
  116    61    61
  117    53    53
  118     9     9
  119    31    31
  120    44    44
  121    74    74
  122    45    45
  123    80    80
  124    71    71
  125    13    13
  126     3     3
  127    48    48
  128    27    27
  129     1     1
  130     4     4
  131    33    33
  132    98    98
  133    42    42
  134    10    10
  135    36    36
  136    63    63
  137    69    69
  138    94    94
  139    87    87
  140    59    59
  141     3     3
  142    58    58
  143    75    75
  144    28    28
  145    51    51
  146    42    42
  147     8     8
  148    71    71
  149    81    81
  150    96    96
  151    70    70
  152    47    47
  153    80    80
  154    47    47
  155     4     4
  156    86    86
  157    54    54
  158    65    65
  159    12    12
  160    85    85
  161    27    27
  162   100   100
  163    35    35
  164    63    63
  165    28    28
  166    19    19
  167    27    27
  168    75    75
  169    99    99
  170     2     2
  171    87    87
  172     6     6
  173    89    89
  174    11    11
  175    69    69
  176    20    20
  177    23    23
  178    25    25
  179    24    24
  180    20    20
  181    98    98
  182    27    27
  183    82    82
  184    95    95
  185    74    74
  186    63    63
  187    97    97
  188    18    18
  189    37    37
  190    81    81
  191    94    94
  192     8     8
  193    66    66
  194    90    90
  195    30    30
  196    65    65
  197    93    93
  198    86    86
  199     9     9
  200    74    74
  201    86    86
  202    54    54
  203    41    41
  204    11    11
  205    23    23
  206    24    24
  207     9     9
  208    83    83
  209     2     2
  210    76    76
  211    83    83
  212    52    52
  213    12    12
  214    39    39
  215    88    88
  216    26    26
  217    20    20
  218    39    39
  219    82    82
  220    22    22
  221    64    64
  222    91    91
  223    92    92
  224    71    71
  225    18    18
  226    79    79
  227    82    82
  228     5     5
  229    94    94
  230    79    79
  231    52    52
  232    42    42
  233    16    16
  234    40    40
  235    34    34
  236    10    10
  237    22    22
  238    83    83
  239    70    70
  240     8     8
  241    57    57
  242    39    39
  243    26    26
  244    76    76
  245    61    61
  246    27    27
  247     4     4
  248    24    24
  249     2     2
  250     9     9
  251     4     4
  252    42    42
  253    97    97
  254    90    90
  255    37    37
  256    27    27
  257     8     8
  258    29    29
  259    28    28
  260    42    42
  261    75    75
  262    92    92
  263    98    98
  264    44    44
  265    12    12
  266     1     1
  267    97    97
  268    48    48
  269    46    46
  270    27    27
  271    51    51
  272     5     5
  273    34    34
  274    54    54
  275    12    12
  276     7     7
  277    59    59
  278    36    36
  279    37    37
  280    31    31
  281    24    24
  282     7     7
  283    46    46
  284    22    22
  285    52    52
  286    15    15
  287    64    64
  288    21    21
  289    62    62
  290    21    21
  291    27    27
  292    20    20
  293    51    51
  294     2     2
  295    28    28
  296    88    88
  297    46    46
  298    18    18
  299    75    75
  300    76    76
  301    58    58
  302    74    74
  303    62    62
  304     8     8
  305    47    47
  306    37    37
  307    85    85
  308    29    29
  309    39    39
  310    42    42
  311    13    13
  312    25    25
  313    55    55
  314    63    63
  315    32    32
  316    26    26
  317    99    99
  318    65    65
  319    54    54
  320    78    78
  321    26    26
  322    68    68
  323     8     8
  324     7     7
  325    19    19
  326    67    67
  327    75    75
  328    82    82
  329    14    14
  330    18    18
  331    83    83
  332    30    30
  333    20    20
  334    16    16
  335    89    89
  336    53    53
  337    51    51
  338    99    99
  339    38    38
  340    50    50
  341    32    32
  342    36    36
  343    63    63
  344    75    75
  345    58    58
  346    83    83
  347    31    31
  348     7     7
  349    88    88
  350    12    12
  351    76    76
  352    13    13
  353    59    59
  354    76    76
  355    98    98
  356    71    71
  357    67    67
  358    31    31
  359     5     5
  360    66    66
  361    24    24
  362    88    88
  363    38    38
  364    23    23
  365     1     1
  366    10    10
  367    61    61
  368    78    78
  369    62    62
  370    50    50
  371    22    22
  372    43    43
  373    55    55
  374    38    38
  375    86    86
  376    33    33
  377    77    77
  378    41    41
  379    22    22
  380    24    24
  381    47    47
  382    18    18
  383    56    56
  384    61    61
  385    73    73
  386    43    43
  387    29    29
  388    89    89
  389    98    98
  390    49    49
  391    15    15
  392    11    11
  393    73    73
  394    46    46
  395    31    31
  396    29    29
  397    56    56
  398    84    84
  399    50    50
  400    57    57
  401    88    88
  402    33    33
  403    90    90
  404     3     3
  405    20    20
  406    93    93
  407     4     4
  408    95    95
  409     4     4
  410    87    87
  411    10    10
  412    10    10
  413    89    89
  414    36    36
  415    43    43
  416    81    81
  417    40    40
  418    43    43
  419    14    14
  420    20    20
  421    97    97
  422    46    46
  423     1     1
  424    38    38
  425    28    28
  426    22    22
  427    38    38
  428    74    74
  429    83    83
  430    81    81
  431    88    88
  432    68    68
  433    21    21
  434    80    80
  435    53    53
  436    98    98
  437     2     2
  438    81    81
  439    43    43
  440    72    72
  441    75    75
  442    87    87
  443    58    58
  444    52    52
  445    70    70
  446    73    73
  447    89    89
  448    70    70
  449    29    29
  450    70    70
  451    33    33
  452    33    33
  453    44    44
  454    61    61
  455    26    26
  456    59    59
  457    28    28
  458    82    82
  459   100   100
  460    26    26
  461    82    82
  462    53    53
  463     3     3
  464    56    56
  465    78    78
  466    95    95
  467    51    51
  468    77    77
  469    98    98
  470    13    13
  471    61    61
  472    10    10
  473    10    10
  474    76    76
  475    10    10
  476    54    54
  477    78    78
  478    39    39
  479    58    58
  480    60    60
  481    46    46
  482    34    34
  483    68    68
  484    26    26
  485    10    10
  486    95    95
  487     4     4
  488    73    73
  489    15    15
  490    21    21
  491    28    28
  492    67    67
  493    39    39
  494    73    73
  495    71    71
  496    32    32
  497    93    93
  498     2     2
  499    29    29
  500    99    99
16308
